webassembly/ejemplos_dzn/12/folder12_json_31.dzn
TERM = { '.', 's(2)', 's(4)', 'in_1', 'local_0', 'local_1', 'in_6', 'in_2', 'in_4', 'in_3', 's(1)', 's(0)', 'in_5', 's(3)', 'in_0'};
null = '.';
s = 12;
n = 12;
ndeps = 5;
max_registers_sz = 5;
NR = 2;
registers = [|'local_0', 's(1)', |'local_1', 's(4)'|];
dependencies = [|'call[function_index(0)]_0', 'i32.store_1', |'i32.store_1', 'i32.store16_2', |'i32.store16_2', 'i32.load16_u_3', |'i32.store16_2', 'i32.load16_u_5', |'i32.store16_2', 'i32.load8_s_9'|];
GET_ENUM = { GET1, GET2, GET3, GET4, GET5, GET6, GET7};
SET_ENUM = { SET1, SET2, SET3, SET4, SET5, SET6, SET7};
TEE_ENUM = { TEE1, TEE2, TEE3, TEE4, TEE5, TEE6, TEE7};
N = 7;
OP = { 'call[function_index(0)]_0', 'i32.store_1', 'i32.store16_2', 'i32.load16_u_3', 'i32.load16_u_5', 'i32.add_0', 'i32.load8_s_9' };
in_ops = [2, 2, 2, 1, 1, 2, 1 ];
out_ops = [1, 0, 0, 1, 1, 1, 1 ];
in1 = ['in_0', 's(0)', 'in_3', 'in_5', 's(1)', 's(2)', 's(3)' ];
in2 = ['in_1', 'in_2', 'in_4', '.', '.', 'in_6', '.' ];
in3 = ['.', '.', '.', '.', '.', '.', '.' ];
out1 = ['s(0)', '.', '.', 's(1)', 's(2)', 's(3)', 's(4)' ];
out2 = ['.', '.', '.', '.', '.', '.', '.' ];
out3 = ['.', '.', '.', '.', '.', '.', '.' ];
comm = [false, false, false, false, false, true, false ];
gas = [1, 1, 1, 1, 1, 1, 1 ];
sz = [1, 1, 1, 1, 1, 1, 1 ];
stor = [true, true, true, false, false, false, false ];
lb = [ 1, 1, 1, 1, 1, 1, 1 ];
ub = [ 12, 12, 12, 12, 12, 12, 12 ];
startstack = [ 'in_0', 'in_1', 'in_2', 'in_3', 'in_4', 'in_5', 'in_6', null, null, null, null, null ];
endstack = [ 's(1)', 's(4)', null, null, null, null, null, null, null, null, null, null ];
