webassembly/ejemplos_results/folder12_json_31.txt
=====UNSATISFIABLE=====
% time elapsed: 0.67 s
